c This Formular is generated by mcnf
c
c    horn? no 
c    forced? no 
c    mixed sat? no 
c    clause length = 3 
c
p cnf 20  91 
 16 -20 5 0
5 -17 -19 0
-9 4 -15 0
19 12 1 0
-16 10 11 0
7 -1 -12 0
-10 14 -17 0
-6 10 -18 0
7 6 -2 0
18 17 15 0
2 11 -13 0
-17 1 7 0
-20 -17 -11 0
-13 18 1 0
10 3 4 0
-7 17 18 0
11 -5 -14 0
-3 -8 7 0
12 16 4 0
-15 4 -13 0
4 15 -16 0
%
0

45 17 85 52 25 21 30 77 79 51 56 16 29 57 18 11 4 90 60 47
